NAME: binpacking2d-05.bp2d
COMMENT: gcut5
NB_ITEMS: 10
BIN_WIDTH: 500
BIN_HEIGHT: 500

ITEMS [id width height]:
1 198 205
2 179 155
3 364 236
4 272 147
5 352 145
6 343 245
7 132 174
8 164 250
9 282 356
10 342 151